fuel_planner/utils/lkh_tsp_solver/resource/single.tsp
NAME : single
TYPE : ATSP
DIMENSION : 7
EDGE_WEIGHT_TYPE : EXPLICIT
EDGE_WEIGHT_FORMAT : FULL_MATRIX
EDGE_WEIGHT_SECTION
0 250 238 223 422 226 388 
0 0 71 140 182 120 175 
0 71 0 189 116 169 224 
0 140 189 0 215 144 182 
0 182 116 215 0 164 219 
0 120 169 144 164 0 54 
0 175 224 182 219 54 0 
EOF