fuel_planner/utils/lkh_tsp_solver/resource/single.txt
NAME : single.100500.tour
COMMENT : Length = 100500
COMMENT : Found by LKH [Keld Helsgaun] Sat Jun 12 15:54:33 2021
TYPE : TOUR
DIMENSION : 4
TOUR_SECTION
1
4
3
2
-1
EOF
